single_objective/SL-DABL/OP/problems/op/OPLib-master/solutions/ea4op/gen4/tsp225-gen4-90.sol
NAME : tsp225
TYPE : OP
DIMENSION : 225
COST_LIMIT : 3525
ROUTE_NODES : 196
ROUTE_SCORE : 10972
ROUTE_COST : 3525
NODE_SEQUENCE_SECTION
1
3
5
7
8
41
40
39
38
37
11
12
13
14
15
16
17
18
203
20
21
22
23
24
208
25
26
34
33
35
206
202
30
29
204
28
79
78
77
217
219
216
76
74
73
72
71
69
68
67
66
65
64
63
62
61
60
116
223
115
113
112
111
110
108
107
106
105
220
104
103
101
100
99
98
96
95
80
81
221
94
93
91
90
89
88
87
210
84
83
82
85
86
211
130
222
128
129
132
215
134
135
183
137
138
139
140
142
201
143
144
145
146
147
148
149
150
151
152
154
155
156
157
159
160
161
162
158
213
164
165
166
167
127
126
125
168
169
123
122
171
172
173
174
176
177
178
179
180
181
182
184
120
175
121
119
186
118
187
117
188
27
189
205
190
225
47
2
59
58
57
56
55
52
50
51
207
49
133
199
224
191
192
196
193
45
218
194
46
44
43
42
6
4
198
200
-1
DEPOT_SECTION
1
-1
EOF
